46
26
8
13 1
11 0
4 6
7 2
16 3
2 5
14 0
13 0
22 6
15 4
25 1
4 8
15 2
10 8
18 4
25 5
3 0
14 1
15 5
5 3
8 7
24 7
16 8
19 1
17 5
7 0
9 6
12 6
19 4
13 6
22 3
9 3
17 5
6 5
13 8
19 3
7 0
2 1
3 2
4 5
8 5
11 8
16 0
15 6
2 7
6 2
